
Gurobi 9.5.1 (linux64) logging started Sun Jul  3 11:15:52 2022

Set parameter LogFile to value "../results/logs/log_facebook_combined_17_250_2022_07_03_11_15.log"
Gurobi Optimizer version 9.5.1 build v9.5.1rc2 (linux64)
Thread count: 8 physical cores, 8 logical processors, using up to 8 threads
Optimize a model with 4052 rows, 8078 columns and 36494 nonzeros
Model fingerprint: 0x0c54b2e1
Coefficient statistics:
  Matrix range     [1e+00, 2e+01]
  Objective range  [1e+00, 1e+00]
  Bounds range     [1e+00, 1e+00]
  RHS range        [1e+00, 2e+02]

Concurrent LP optimizer: primal simplex, dual simplex, and barrier
Showing barrier log only...

Presolve removed 1002 rows and 6320 columns
Presolve time: 0.03s
Presolved: 3050 rows, 1758 columns, 23188 nonzeros

Ordering time: 0.00s

Barrier statistics:
 AA' NZ     : 6.099e+04
 Factor NZ  : 1.570e+05 (roughly 3 MB of memory)
 Factor Ops : 1.815e+07 (less than 1 second per iteration)
 Threads    : 6

                  Objective                Residual
Iter       Primal          Dual         Primal    Dual     Compl     Time
   0   3.58714817e+03  2.41245454e+03  5.87e+03 2.50e-01  4.78e+00     0s
   1   3.72768177e+03  2.74419002e+03  2.73e+03 2.06e-01  2.13e+00     0s
   2   3.01159318e+03  3.33445143e+03  9.89e+02 4.83e-15  9.45e-01     0s
   3   2.63087835e+03  3.15136045e+03  2.54e+02 3.39e-15  2.81e-01     0s

Barrier performed 3 iterations in 0.08 seconds (0.03 work units)
Barrier solve interrupted - model solved by another algorithm


Solved with dual simplex
Solved in 1076 iterations and 0.08 seconds (0.05 work units)
Optimal objective  2.551960302e+03
